c Qdimacs file from skolem function generator
p cnf 320 1007
a 250 251 252 253 254 255 256 257 258 259 260 261 262 263 264 265 266 267 268 269 270 271 272 273 274 275 276 277 278 279 280 281 282 283 284 285 286 287 288 289 290 291 292 293 294 295 296 297 298 299 300 301 302 303 304 305 306 307 308 309 310 311 312 313 314 315 316 317 318 319 0
e 217 218 219 220 221 222 223 224 225 226 227 228 229 230 231 232 233 234 235 236 237 238 239 240 241 242 243 244 245 246 247 248 249 1 2 3 4 5 6 7 8 9 10 11 12 13 14 15 16 17 18 19 20 21 22 23 24 25 26 27 28 29 30 31 32 33 34 35 36 37 38 39 40 41 42 43 44 45 46 47 48 49 50 51 52 53 54 55 56 57 58 59 60 61 62 63 64 65 66 67 68 69 70 71 72 73 74 75 76 77 78 79 80 81 82 83 84 85 86 87 88 89 90 91 92 93 94 95 96 97 98 99 100 101 102 103 104 105 106 107 108 109 110 111 112 113 114 115 116 117 118 119 120 121 122 123 124 125 126 127 128 129 130 131 132 133 134 135 136 137 138 139 140 141 142 143 144 145 146 147 148 149 150 151 152 153 154 155 156 157 158 159 160 161 162 163 164 165 166 167 168 169 170 171 172 173 174 175 176 177 178 179 180 181 182 183 184 185 186 187 188 189 190 191 192 193 194 195 196 197 198 199 200 201 202 203 204 205 206 207 208 209 210 211 212 213 214 215 216 320 0
4 283 5 -194 -201 0
4 -283 -5 -194 -201 0
-4 201 0
-4 -283 5 0
-4 194 0
-4 283 -5 0
5 284 -190 0
5 -284 6 -76 0
-5 -284 -6 0
-5 284 190 0
-5 -284 76 0
6 -7 68 0
6 -68 75 0
6 68 -69 0
-6 -68 -75 0
-6 7 68 69 0
7 -8 54 55 0
7 48 54 55 0
-7 -55 0
-7 -54 0
-7 8 -48 0
8 15 42 -43 0
8 9 15 42 0
-8 -42 0
-8 -15 0
-8 -9 43 0
9 272 273 274 -10 0
-9 10 0
-9 -274 0
-9 -272 0
-9 -273 0
10 11 -13 0
-10 -11 0
-10 13 0
11 273 -275 0
11 -273 275 12 0
11 -272 273 -12 0
-11 -273 -12 0
-11 273 275 12 0
-11 -273 -275 0
-11 272 275 -12 0
12 274 -276 0
-12 -274 0
-12 276 0
13 -274 275 -276 0
13 274 276 14 0
13 274 -275 -276 0
13 275 -276 -14 0
-13 -274 -275 0
-13 274 275 -276 14 0
-13 -274 276 0
-13 276 -14 0
14 272 273 0
-14 -272 0
-14 -273 0
15 21 9 36 0
15 16 21 9 0
-15 -9 0
-15 -21 0
-15 -16 -36 0
16 11 13 -17 0
-16 17 0
-16 -13 0
-16 -11 0
17 18 -19 0
-17 -18 0
-17 19 0
18 -274 -275 0
-18 274 0
-18 275 0
19 -272 -20 0
-19 272 0
-19 20 0
20 -273 -274 0
20 -273 -276 0
20 -273 -275 0
-20 273 0
-20 274 275 276 0
21 27 16 -34 0
21 22 27 16 0
-21 -16 0
-21 -27 0
-21 -22 34 0
22 23 -25 -10 0
-22 10 0
-22 25 0
-22 -23 0
23 -272 -24 0
23 272 24 0
-23 272 -24 0
-23 -272 24 0
24 274 -275 0
24 273 274 0
24 274 -276 0
24 -273 -274 275 0
-24 273 -274 0
-24 -274 -275 0
-24 -273 274 275 276 0
25 26 19 0
-25 -26 0
-25 -19 0
26 272 18 0
26 272 273 0
-26 -272 0
-26 -273 -18 0
27 227 -29 22 0
27 -28 29 22 0
-27 -22 0
-27 -227 -29 0
-27 28 29 0
28 -227 -260 0
28 227 260 0
-28 227 -260 0
-28 -227 260 0
29 -266 -30 0
-29 266 0
-29 30 0
30 -31 -32 0
-30 31 0
-30 32 0
31 -11 -13 0
-31 11 0
-31 13 0
32 -24 -33 0
-32 24 0
-32 33 0
33 272 -273 18 0
33 272 273 -274 0
-33 -272 0
-33 -273 -18 0
-33 273 274 0
34 -227 -35 0
34 28 35 0
-34 -28 35 0
-34 227 -35 0
35 266 -267 0
-35 -266 0
-35 267 0
36 37 40 0
36 227 40 0
36 -227 37 -39 0
-36 -227 -37 0
-36 227 -40 0
-36 39 -40 0
37 -253 -38 0
-37 253 0
-37 38 0
38 -252 -260 -282 0
38 -252 -260 -265 0
-38 252 0
-38 260 0
-38 265 282 0
39 282 -38 0
39 265 -38 0
-39 38 0
-39 -265 -282 0
40 -28 41 0
40 -38 41 0
-40 -41 0
-40 28 38 0
41 282 -37 0
41 265 -37 0
-41 37 0
-41 -265 -282 0
42 272 -273 -18 0
-42 18 0
-42 273 0
-42 -272 0
43 -227 -46 0
43 28 44 0
43 44 -46 0
43 -227 28 0
-43 -28 46 0
-43 227 -44 0
44 -278 279 -280 45 0
-44 280 0
-44 -45 0
-44 278 0
-44 -279 0
45 256 -265 0
45 -256 265 0
-45 -256 -265 0
-45 256 265 0
46 -278 279 -280 -47 0
-46 47 0
-46 278 0
-46 280 0
-46 -279 0
47 256 265 0
-47 -256 0
-47 -265 0
48 49 52 0
48 227 49 -51 0
-48 -49 0
-48 -227 -52 0
-48 51 -52 0
49 -11 13 -50 0
-49 11 0
-49 -13 0
-49 50 0
50 24 -33 0
-50 -24 0
-50 33 0
51 278 279 -280 45 0
-51 -278 0
-51 -45 0
-51 280 0
-51 -279 0
52 28 -42 0
52 -42 -53 0
-52 42 0
-52 -28 53 0
53 278 279 -280 -47 0
-53 -278 0
-53 47 0
-53 280 0
-53 -279 0
54 -32 -10 0
-54 32 0
-54 10 0
55 -49 -58 0
55 -28 -49 56 0
-55 49 0
-55 -56 58 0
-55 28 58 0
56 278 -279 280 -57 0
-56 279 0
-56 -280 0
-56 -278 0
-56 57 0
57 250 265 -282 0
-57 282 0
-57 -265 0
-57 -250 0
58 -59 -66 0
58 261 -59 61 0
-58 59 0
-58 -261 66 0
-58 -61 66 0
59 278 -279 280 60 0
-59 279 0
-59 -60 0
-59 -278 0
-59 -280 0
60 250 -265 0
60 -250 265 0
60 250 282 0
-60 -250 -265 0
-60 250 265 -282 0
61 227 28 0
61 -62 65 0
61 28 65 0
61 227 -62 0
-61 -227 -65 0
-61 -28 62 0
62 -251 -63 0
62 -63 64 0
-62 63 0
-62 251 -64 0
63 261 -263 0
-63 -261 0
-63 263 0
64 -264 -282 0
64 264 282 0
-64 264 -282 0
-64 -264 282 0
65 -251 -63 0
65 -264 -63 0
65 -282 -63 0
-65 63 0
-65 251 264 282 0
66 -261 262 67 0
66 -261 -262 -28 0
-66 261 0
-66 -262 28 0
-66 262 -67 0
67 227 -264 282 0
67 264 282 28 0
67 227 28 0
67 227 264 -282 0
-67 -227 -264 0
-67 -264 -282 -28 0
-67 -227 -282 0
-67 264 282 -28 0
68 -31 -23 -25 0
-68 31 0
-68 23 0
-68 25 0
69 28 -54 72 0
69 -54 -70 72 0
-69 54 0
-69 -72 0
-69 -28 70 0
70 -57 -71 0
-70 57 0
-70 71 0
71 255 -278 279 280 0
-71 278 0
-71 -280 0
-71 -255 0
-71 -279 0
72 -28 73 -74 0
72 67 -73 -74 0
-72 74 0
-72 -67 -73 0
-72 28 73 0
73 -261 262 0
-73 261 0
-73 -262 0
74 60 -71 0
-74 -60 0
-74 71 0
75 227 -254 0
75 254 -28 0
-75 -227 -254 0
-75 254 28 0
76 -77 145 165 -181 0
-76 181 0
-76 -165 0
-76 77 0
-76 -145 0
77 78 -93 122 133 0
-77 93 0
-77 -133 0
-77 -78 0
-77 -122 0
78 -54 -79 0
78 54 -89 0
78 54 -84 0
-78 -54 79 0
-78 54 84 89 0
79 230 80 0
79 -81 83 0
79 80 83 0
79 230 -81 0
-79 -230 -83 0
-79 -80 81 0
80 -230 -263 0
80 230 263 0
-80 230 -263 0
-80 -230 263 0
81 -70 -82 0
-81 70 0
-81 82 0
82 260 261 0
-82 -260 0
-82 -261 0
83 -74 -82 0
-83 74 0
-83 82 0
84 49 85 -88 0
84 9 49 85 0
-84 -85 0
-84 -49 0
-84 -9 88 0
85 230 9 -86 0
85 9 -80 86 0
-85 -9 0
-85 -230 -86 0
-85 80 86 0
86 -258 -87 0
-86 258 0
-86 87 0
87 -10 -50 0
-87 10 0
-87 50 0
88 -230 80 0
88 44 -46 0
88 44 80 0
88 -230 -46 0
-88 230 -44 0
-88 46 -80 0
89 230 -49 90 0
89 -49 90 92 0
-89 49 0
-89 -90 0
-89 -230 -92 0
90 -80 91 0
-90 80 0
-90 -91 0
91 -56 -82 0
-91 56 0
-91 82 0
92 -59 -82 0
-92 59 0
-92 82 0
93 49 101 -103 0
93 -49 94 -103 0
-93 103 0
-93 49 -101 0
-93 -49 -94 0
94 95 -97 0
94 65 95 0
94 92 95 0
-94 -95 0
-94 -65 -92 97 0
95 91 96 0
95 -59 62 96 0
-95 -96 0
-95 -62 -91 0
-95 59 -91 0
96 244 -277 0
96 -244 277 0
-96 -244 -277 0
-96 244 277 0
97 64 -99 0
97 -251 98 -99 0
-97 99 0
-97 -64 -98 0
-97 251 -64 0
98 -268 -282 0
-98 268 0
-98 282 0
99 -244 -100 0
99 244 100 0
-99 244 -100 0
-99 -244 100 0
100 264 -282 0
-100 -264 0
-100 282 0
101 16 -96 0
101 -16 -41 102 0
101 -96 102 0
-101 -16 -102 0
-101 16 96 0
-101 41 96 0
102 -244 -37 0
102 -270 -282 -37 0
-102 37 0
-102 244 282 0
-102 244 270 0
103 -22 106 -113 0
103 -104 106 -113 0
-103 113 0
-103 -106 0
-103 22 104 0
104 29 105 0
104 233 234 -29 0
-104 29 -105 0
-104 -233 -29 0
-104 -234 -29 0
105 -233 266 0
105 233 -234 267 0
105 233 -266 0
105 234 266 -267 0
-105 -233 -266 0
-105 233 -234 266 -267 0
-105 233 234 266 267 0
106 -54 83 107 0
106 -54 107 112 0
-106 54 0
-106 -107 0
-106 -83 -112 0
107 108 -110 0
107 81 108 -109 0
-107 -108 0
-107 -81 110 0
-107 109 110 0
108 231 -264 0
108 -231 264 0
-108 -231 -264 0
-108 231 264 0
109 -236 -269 0
109 236 269 0
-109 236 -269 0
-109 -236 269 0
110 -236 261 -111 0
-110 236 0
-110 -261 0
-110 111 0
111 -263 -83 0
-111 263 0
-111 83 0
112 231 282 63 -109 0
112 -231 -282 63 -109 0
-112 -63 0
-112 231 -282 0
-112 109 0
-112 -231 282 0
113 114 115 -119 -120 0
-113 -114 0
-113 120 0
-113 119 0
-113 -115 0
114 233 -234 -22 0
114 -233 266 -22 0
114 233 -266 -22 0
-114 22 0
-114 -233 -266 0
-114 233 234 266 0
115 -54 -81 117 0
115 -54 116 117 0
-115 54 0
-115 -117 0
-115 81 -116 0
116 -237 -270 0
116 237 270 0
-116 237 -270 0
-116 -237 270 0
117 63 -83 -116 0
117 -63 -83 -118 0
-117 83 0
-117 -63 118 0
-117 63 116 0
118 -237 -268 0
118 -237 282 0
118 237 268 -282 0
-118 237 -268 0
-118 237 282 0
-118 -237 268 -282 0
119 -226 232 -259 265 0
119 226 -232 259 -265 0
119 226 232 259 265 0
119 -226 -232 -259 -265 0
-119 -226 259 0
-119 226 -259 0
-119 232 -265 0
-119 -232 265 0
120 268 -121 0
120 282 -121 0
120 -251 -121 0
-120 121 0
-120 251 -268 -282 0
121 270 -283 0
121 282 -283 0
121 -253 -283 0
-121 283 0
-121 253 -270 -282 0
122 -54 -123 0
122 54 -131 0
122 54 -125 0
-122 -54 123 0
-122 54 125 131 0
123 111 124 0
123 -282 124 0
123 235 124 0
-123 -124 0
-123 -235 282 -111 0
124 -235 -268 0
124 235 268 0
-124 235 -268 0
-124 -235 268 0
125 49 126 129 0
125 30 49 126 0
-125 -126 0
-125 -49 0
-125 -30 -129 0
126 235 30 -127 0
126 30 -124 127 0
-126 -30 0
-126 -235 -127 0
-126 124 127 0
127 282 -128 0
-127 -282 0
-127 128 0
128 -255 -269 -31 -17 0
-128 17 0
-128 255 0
-128 31 0
-128 269 0
129 -124 130 0
129 -235 -130 0
-129 124 130 0
-129 235 -130 0
130 259 -266 0
-130 -259 0
-130 266 0
131 -235 -49 132 0
131 -49 92 132 0
-131 49 0
-131 -132 0
-131 235 -92 0
132 91 -124 0
-132 -91 0
-132 124 0
133 54 134 -140 0
133 49 54 134 0
-133 -134 0
-133 -54 0
-133 -49 140 0
134 49 135 139 0
134 16 49 135 0
-134 -135 0
-134 -49 0
-134 -16 -139 0
135 -30 16 137 0
135 30 16 -136 0
-135 -16 0
-135 -30 -137 0
-135 30 136 0
136 -282 116 0
136 116 128 0
136 -237 282 -128 0
-136 -282 -116 0
-136 -116 128 0
-136 237 282 -128 0
137 -266 138 0
137 -116 138 0
-137 -138 0
-137 266 116 0
138 237 -266 -268 0
138 237 259 -266 0
138 -237 -259 -266 268 0
-138 -237 259 0
-138 237 -259 268 0
-138 266 0
-138 -237 -268 0
139 38 116 0
139 -282 116 0
139 -237 282 -38 0
-139 38 -116 0
-139 -282 -116 0
-139 237 282 -38 0
140 -91 141 0
140 116 141 0
-140 -141 0
-140 91 -116 0
141 62 -144 0
141 142 -144 0
141 -237 -144 0
-141 144 0
-141 237 -62 -142 0
142 264 -143 0
142 -268 -269 -143 0
-142 143 0
-142 -264 268 0
-142 -264 269 0
143 -265 -282 0
-143 265 0
-143 282 0
144 237 -92 0
144 -65 -92 -142 0
-144 92 0
-144 -237 142 0
-144 -237 65 0
145 -146 150 0
145 -148 150 0
145 49 150 0
-145 -150 0
-145 -49 146 148 0
146 -91 92 0
146 -229 147 0
146 -229 -91 0
146 92 147 0
-146 91 -147 0
-146 229 -92 0
147 -229 -262 0
147 229 262 0
-147 229 -262 0
-147 -229 262 0
148 228 -91 0
148 92 149 0
148 -91 92 0
148 228 149 0
-148 91 -149 0
-148 -228 -92 0
149 -228 -261 0
149 228 261 0
-149 228 -261 0
-149 -228 261 0
150 -42 49 -161 0
150 49 -151 -161 0
-150 161 0
-150 -49 0
-150 42 151 0
151 152 153 158 159 0
-151 -159 0
-151 -158 0
-151 -152 0
-151 -153 0
152 29 87 149 0
152 -228 -29 87 0
-152 -87 0
-152 228 -29 0
-152 29 -149 0
153 9 154 156 0
153 16 9 154 0
-153 -154 0
-153 -9 0
-153 -16 -156 0
154 -147 155 0
-154 147 0
-154 -155 0
155 -16 37 0
-155 16 0
-155 -37 0
156 41 -157 0
156 39 41 -147 0
-156 -41 0
-156 -39 157 0
-156 147 157 0
157 229 261 -38 0
157 229 262 -38 0
157 -229 -261 -262 -38 0
-157 -229 261 0
-157 229 -261 -262 0
-157 38 0
-157 -229 262 0
158 258 -87 149 0
158 -228 -258 -87 0
-158 87 0
-158 228 -258 0
-158 258 -149 0
159 229 -9 160 0
159 -9 44 160 0
-159 9 0
-159 -160 0
-159 -229 -44 0
160 46 -147 0
-160 -46 0
-160 147 0
161 162 164 0
161 -229 -51 162 0
-161 -162 0
-161 229 -164 0
-161 51 -164 0
162 -228 -42 163 0
162 -42 51 163 0
-162 42 0
-162 -163 0
-162 228 -51 0
163 53 -149 0
-163 -53 0
-163 149 0
164 -42 -53 0
164 -42 147 0
-164 42 0
-164 53 -147 0
165 -54 -166 0
165 54 -178 0
165 54 -171 0
-165 -54 166 0
-165 54 171 178 0
166 167 170 0
166 -70 -168 0
166 167 -168 0
-166 70 -167 0
-166 168 -170 0
-166 -167 168 0
167 -238 -271 0
167 238 271 0
-167 238 -271 0
-167 -238 271 0
168 260 -261 262 -169 0
-168 261 0
-168 -262 0
-168 -260 0
-168 169 0
169 -238 264 -282 0
169 264 282 167 0
169 -238 167 0
169 -238 -264 282 0
-169 238 -282 0
-169 -264 -282 -167 0
-169 238 -264 0
-169 264 282 -167 0
170 260 -261 262 -74 0
-170 261 0
-170 -262 0
-170 -260 0
-170 74 0
171 -49 -56 172 0
171 -49 167 172 0
-171 49 0
-171 -172 0
-171 56 -167 0
172 -59 -173 0
172 -59 -176 0
172 -59 -175 0
-172 59 0
-172 173 175 176 0
173 -261 262 -174 0
173 -261 -262 -167 0
-173 261 0
-173 -262 167 0
-173 262 174 0
174 260 169 0
-174 -260 0
-174 -169 0
175 -260 -167 0
-175 260 0
-175 167 0
176 261 -177 0
176 261 62 -167 0
-176 -261 0
-176 -62 177 0
-176 167 177 0
177 -238 260 -65 0
-177 238 0
-177 -260 0
-177 65 0
178 49 -155 179 0
178 49 167 179 0
-178 -49 0
-178 -179 0
-178 155 -167 0
179 -16 41 180 0
-179 16 0
-179 -180 0
-179 -41 0
180 38 167 0
180 -238 167 0
180 -238 -38 143 0
-180 238 -38 0
-180 38 -167 0
-180 -143 -167 0
181 -54 0
181 -182 -185 0
181 -182 -188 0
-181 54 182 0
-181 54 185 188 0
182 183 184 0
182 49 183 0
-182 -183 0
-182 -49 -184 0
183 236 -29 49 0
183 29 49 109 0
-183 -49 0
-183 29 -109 0
-183 -236 -29 0
184 -91 92 0
184 -236 109 0
184 -236 -91 0
184 92 109 0
-184 91 -109 0
-184 236 -92 0
185 49 -186 -187 0
185 49 108 186 0
-185 -49 0
-185 -108 186 0
-185 -186 187 0
186 -261 266 -267 -22 0
-186 22 0
-186 261 0
-186 267 0
-186 -266 0
187 -231 -259 0
187 231 259 0
-187 231 -259 0
-187 -231 259 0
188 -49 -189 0
188 -49 91 108 0
-188 49 0
-188 -91 189 0
-188 -108 189 0
189 -231 -282 -92 0
189 231 282 -92 0
-189 92 0
-189 -231 282 0
-189 231 -282 0
190 231 232 -191 -193 0
190 -231 -232 -191 -193 0
-190 193 0
-190 -231 232 0
-190 191 0
-190 231 -232 0
191 233 234 -192 0
-191 192 0
-191 -234 0
-191 -233 0
192 227 228 229 230 0
-192 -230 0
-192 -229 0
-192 -227 0
-192 -228 0
193 235 236 237 238 0
-193 -238 0
-193 -237 0
-193 -235 0
-193 -236 0
194 -195 -196 -197 -200 0
-194 200 0
-194 195 0
-194 197 0
-194 196 0
195 -217 245 -250 278 0
195 217 -245 250 -278 0
195 217 245 250 278 0
195 -217 -245 -250 -278 0
-195 -217 250 0
-195 217 -250 0
-195 245 -278 0
-195 -245 278 0
196 -233 247 -266 280 0
196 233 -247 266 -280 0
196 233 247 266 280 0
196 -233 -247 -266 -280 0
-196 -233 266 0
-196 233 -266 0
-196 247 -280 0
-196 -247 280 0
197 -28 -198 -149 199 0
-197 149 0
-197 -199 0
-197 28 0
-197 198 0
198 -234 -267 0
198 234 267 0
-198 234 -267 0
-198 -234 267 0
199 220 -253 0
199 -220 253 0
-199 -220 -253 0
-199 220 253 0
200 96 -109 -147 -167 0
-200 -96 0
-200 167 0
-200 147 0
-200 109 0
201 -119 -202 -205 -213 0
-201 213 0
-201 119 0
-201 205 0
-201 202 0
202 246 279 -203 -204 0
202 -246 -279 -203 -204 0
-202 204 0
-202 -246 279 0
-202 203 0
-202 246 -279 0
203 -218 248 281 0
203 -248 251 -281 0
203 -218 -248 -281 0
203 248 251 281 0
-203 248 -281 0
-203 -248 281 0
-203 218 -251 0
204 -223 -256 0
204 223 256 0
-204 223 -256 0
-204 -223 256 0
205 -206 -209 -211 -212 0
-205 212 0
-205 206 0
-205 211 0
-205 209 0
206 240 207 -208 0
206 -273 207 -208 0
-206 208 0
-206 -207 0
-206 -240 273 0
207 225 -258 0
-207 -225 0
-207 258 0
208 -221 -251 0
208 218 254 0
208 218 -221 0
208 -251 254 0
-208 -218 251 0
-208 221 -254 0
209 -240 -284 -210 0
209 273 -284 -210 0
-209 210 0
-209 284 0
-209 240 -273 0
210 221 225 0
210 -254 -258 0
210 221 -258 0
210 225 -254 0
-210 -221 254 0
-210 -225 258 0
211 -222 249 -255 282 0
211 222 -249 255 -282 0
211 222 249 255 282 0
211 -222 -249 -255 -282 0
-211 -222 255 0
-211 222 -255 0
-211 249 -282 0
-211 -249 282 0
212 -219 239 -252 272 0
212 219 -239 252 -272 0
212 219 239 252 272 0
212 -219 -239 -252 -272 0
-212 -219 252 0
-212 219 -252 0
-212 239 -272 0
-212 -239 272 0
213 -80 108 -214 -215 0
-213 215 0
-213 80 0
-213 214 0
-213 -108 0
214 -243 -276 -116 0
214 243 276 -116 0
-214 116 0
-214 -243 276 0
-214 243 -276 0
215 242 275 -124 -216 0
215 -242 -275 -124 -216 0
-215 216 0
-215 -242 275 0
-215 124 0
-215 242 -275 0
216 -224 241 -257 274 0
216 224 -241 257 -274 0
216 224 241 257 274 0
216 -224 -241 -257 -274 0
-216 -224 257 0
-216 224 -257 0
-216 241 -274 0
-216 -241 274 0
320 0
2 4 0
-2 -4 0
3 4 0
-3 -4 0
3 0

